outputs/case_333.model.txt
capital_to_risk_assets_ratio_6m = 11
credit_limit_ratio_increased = False
short_term_trade_finance = 1000000000
credit_balance_non_mainland_foreign = 1500000000
credit_balance_third_area = 3500000000
net_asset_last_year = 10000000000
avg_overdue_loan_ratio_6m = 0
avg_bad_debt_coverage_ratio_6m = 81
asset_quality_evaluated = True
credit_limit_increase_eligibility = True
asset_allocation_considered = True
capital_adequacy_monitored = True
internal_handling_compliance = True
internal_operation_compliance = True
annual_report_compliance = True
risk_control_mechanism_compliance = True
internal_control_executed = True
internal_handling_executed = True
information_security_and_emergency_plan_established = True
internal_control_compliance = True
internal_operation_established = True
internal_control_established = True
report_submitted_jan = True
risk_management_policy_established = True
risk_management_policy_compliance = True
ratios_within_limits = True
risk_management_policy_approved = True
report_submitted_jul = True
liquidity_management_established = True
credit_limit_ratio_adjusted = 40
penalty = False
internal_handling_established = True
credit_limit_ratio = 40
internal_operation_executed = True
/0 = [else -> 2/5]